Translating instance to solver...

Set parameter TimeLimit to value 28800
Gurobi Optimizer version 11.0.2 build v11.0.2rc0 (linux64 - "Ubuntu 22.04.4 LTS")

CPU model: Intel(R) Xeon(R) Gold 5120 CPU @ 2.20GHz, instruction set [SSE2|AVX|AVX2|AVX512]
Thread count: 28 physical cores, 56 logical processors, using up to 28 threads

Academic license 2463511 - for non-commercial use only - registered to lu___@cefet-rj.br
Optimize a model with 4615 rows, 3173 columns and 12057 nonzeros
Model fingerprint: 0xfb3c4744
Variable types: 1 continuous, 3172 integer (3160 binary)
Coefficient statistics:
  Matrix range     [1e+00, 1e+05]
  Objective range  [3e-01, 8e-01]
  Bounds range     [1e+00, 8e+00]
  RHS range        [1e+00, 5e+01]
Presolve removed 4025 rows and 2892 columns
Presolve time: 0.06s
Presolved: 590 rows, 281 columns, 2166 nonzeros
Variable types: 0 continuous, 281 integer (270 binary)

Root relaxation: objective 1.030092e+00, 233 iterations, 0.00 seconds (0.00 work units)

    Nodes    |    Current Node    |     Objective Bounds      |     Work
 Expl Unexpl |  Obj  Depth IntInf | Incumbent    BestBd   Gap | It/Node Time

     0     0    1.03009    0   47          -    1.03009      -     -    0s
H    0     0                       1.5117820    1.03009  31.9%     -    0s
     0     0    1.03746    0   95    1.51178    1.03746  31.4%     -    0s
     0     0    1.03746    0   84    1.51178    1.03746  31.4%     -    0s
     0     0    1.03746    0   86    1.51178    1.03746  31.4%     -    0s
     0     0    1.06178    0   61    1.51178    1.06178  29.8%     -    0s
     0     0    1.06178    0   63    1.51178    1.06178  29.8%     -    0s
     0     0    1.08678    0   93    1.51178    1.08678  28.1%     -    0s
     0     0    1.12077    0   51    1.51178    1.12077  25.9%     -    0s
     0     0    1.12077    0   44    1.51178    1.12077  25.9%     -    0s
     0     0    1.15961    0   48    1.51178    1.15961  23.3%     -    0s
     0     0    1.25161    0   42    1.51178    1.25161  17.2%     -    0s
     0     0    1.32252    0   43    1.51178    1.32252  12.5%     -    0s
     0     0    1.36767    0   82    1.51178    1.36767  9.53%     -    0s
     0     0    1.36767    0   82    1.51178    1.36767  9.53%     -    0s
     0     0    1.36767    0   46    1.51178    1.36767  9.53%     -    0s
     0     0    1.36767    0   69    1.51178    1.36767  9.53%     -    0s
     0     0    1.36767    0   49    1.51178    1.36767  9.53%     -    0s
     0     0    1.36767    0   77    1.51178    1.36767  9.53%     -    0s
     0     0    1.36767    0   64    1.51178    1.36767  9.53%     -    0s
     0     0    1.36767    0   56    1.51178    1.36767  9.53%     -    0s
     0     0    1.36767    0   72    1.51178    1.36767  9.53%     -    0s
     0     0    1.36767    0   72    1.51178    1.36767  9.53%     -    0s
     0     2    1.36767    0   72    1.51178    1.36767  9.53%     -    0s

Cutting planes:
  Learned: 12
  Gomory: 3
  Implied bound: 4
  Clique: 2
  MIR: 6
  Zero half: 6
  RLT: 19
  Relax-and-lift: 10
  BQP: 4

Explored 107 nodes (3896 simplex iterations) in 0.64 seconds (0.33 work units)
Thread count was 28 (of 56 available processors)

Solution count 1: 1.51178 

Optimal solution found (tolerance 1.00e-04)
Best objective 1.511782000000e+00, best bound 1.511782000000e+00, gap 0.0000%

Solver Wallclock Time (for this epsilon): 0.6394641399383545 s
Python wallclock Time (for this epsilon): 1.0629479885101318 s


Total Elapsed Time (since program call): 5.224092960357666 s

Results:

I = 1.511782 mA
C = 60.0 points
C ~= 24.0 km^2

Minimum Epsilon for this instance = 9
Maximum Epsilon for this instance = 96

Current Epsilon = 54


Preprocessing Time (for this epsilon): 0.0017285346984863281 s


Updated solution vectors:
sol_I = [-0.611782,-0.9176730000000001,-1.061782,-1.061782,-1.061782,-1.511782]
sol_C = [9.0,19.0,38.0,49.0,47.0,60.0]
sol_eps = [9,18,27,36,45,54]
sol_gap = [0.0,0.0,0.0,0.0,0.0,0.0]
